10
0 21 54 65 24 86 38 45 57 22
21 0 29 56 39 54 71 23 63 47
54 29 0 11 13 79 29 70 51 51
65 56 11 0 43 80 56 28 52 81
24 39 13 43 0 49 58 28 54 40
86 54 79 80 49 0 35 28 46 67
38 71 29 56 58 35 0 62 29 49
45 23 70 28 28 28 62 0 81 38
57 63 51 52 54 46 29 81 0 57
22 47 51 81 40 67 49 38 57 0
